k-points along high-symmetry lines
 40
line
reciprocal
0.000   0.000   0.000 ! $\Gamma$ 
0.500   0.000   0.000 ! L 

0.500   0.000   0.000 ! L  
0.500   0.500   0.500 ! Z 

0.500   0.500   0.500 ! Z
0.500   0.500   0.000 ! F
 
0.500   0.500   0.000 ! F
0.000   0.000   0.000 ! $\Gamma$

0.000   0.000   0.000 ! $\Gamma$
0.500   0.500   0.500 ! Z 
